N = 12;
H = 5;
T = 2;

avail = array3d(1..N, 1..H, 1..T, [7, 5, 10, 2, 2, 5, 10, 1, 10, 6, 3, 2, 4, 10, 3, 2, 10, 9, 10, 1, 3, 3, 3, 0, 4, 0, 7, 9, 2, 8, 2, 8, 1, 7, 5, 4, 4, 3, 7, 7, 2, 6, 9, 0, 4, 7, 10, 4, 8, 7, 3, 9, 9, 2, 1, 10, 0, 4, 1, 1, 5, 7, 2, 3, 6, 9, 8, 3, 2, 4, 7, 6, 10, 6, 1, 6, 10, 2, 1, 2, 3, 6, 6, 1, 3, 5, 2, 2, 3, 8, 0, 4, 4, 3, 7, 5, 4, 4, 8, 10, 3, 0, 10, 0, 0, 1, 6, 5, 8, 6, 1, 10, 7, 6, 5, 7, 5, 7, 5, 6]);

r = array2d(1..H, 1..T, [2, 4, 5, 5, 5, 2, 4, 3, 1, 4]);
